NAME: line_60_7
TYPE: TSP
COMMENT: line_60_7
DIMENSION: 60
EDGE_WEIGHT_TYPE: EUC_2D
NODE_COORD_SECTION
1 0.0 296.0
2 0.0 539.0
3 0.0 215.0
4 0.0 538.0
5 0.0 97.0
6 0.0 423.0
7 0.0 423.0
8 0.0 168.0
9 0.0 115.0
10 0.0 342.0
11 0.0 275.0
12 0.0 443.0
13 0.0 583.0
14 0.0 474.0
15 0.0 590.0
16 0.0 417.0
17 0.0 123.0
18 0.0 152.0
19 0.0 212.0
20 0.0 295.0
21 0.0 597.0
22 0.0 73.0
23 0.0 521.0
24 0.0 131.0
25 0.0 519.0
26 0.0 325.0
27 0.0 181.0
28 0.0 517.0
29 0.0 115.0
30 0.0 491.0
31 0.0 568.0
32 0.0 583.0
33 0.0 84.0
34 0.0 319.0
35 0.0 5.0
36 0.0 176.0
37 0.0 479.0
38 0.0 569.0
39 0.0 214.0
40 0.0 220.0
41 0.0 137.0
42 0.0 192.0
43 0.0 285.0
44 0.0 326.0
45 0.0 595.0
46 0.0 534.0
47 0.0 572.0
48 0.0 357.0
49 0.0 542.0
50 0.0 384.0
51 0.0 463.0
52 0.0 97.0
53 0.0 102.0
54 0.0 569.0
55 0.0 124.0
56 0.0 571.0
57 0.0 366.0
58 0.0 283.0
59 0.0 536.0
60 0.0 160.0
